NAME: random-32-21210
TYPE: TSP
COMMENT: size=32 seed=21210
DIMENSION: 66
EDGE_WEIGHT_TYPE: EUC_2D
NODE_COORD_SECTION
+0 470 807
-0 470 807
+1 847 452
-1 181 874
+2 501 762
-2 702 298
+3 592 569
-3 219 232
+4 625 629
-4 996 721
+5 92 288
-5 566 72
+6 891 58
-6 140 137
+7 879 166
-7 741 58
+8 318 188
-8 136 163
+9 144 469
-9 297 454
+10 437 287
-10 961 794
+11 604 423
-11 668 802
+12 492 338
-12 931 726
+13 859 230
-13 140 343
+14 647 927
-14 552 882
+15 631 960
-15 640 438
+16 88 511
-16 502 852
+17 886 22
-17 87 901
+18 578 576
-18 605 990
+19 404 446
-19 553 98
+20 124 14
-20 698 716
+21 65 206
-21 145 745
+22 604 218
-22 418 271
+23 135 978
-23 481 739
+24 580 114
-24 316 170
+25 998 542
-25 33 926
+26 550 952
-26 877 823
+27 995 756
-27 729 973
+28 436 626
-28 659 807
+29 784 526
-29 54 918
+30 537 842
-30 979 491
+31 160 695
-31 606 364
+32 368 475
-32 809 640
PRECEDENCE_SECTION
+0 -0
+1 -1
+2 -2
+3 -3
+4 -4
+5 -5
+6 -6
+7 -7
+8 -8
+9 -9
+10 -10
+11 -11
+12 -12
+13 -13
+14 -14
+15 -15
+16 -16
+17 -17
+18 -18
+19 -19
+20 -20
+21 -21
+22 -22
+23 -23
+24 -24
+25 -25
+26 -26
+27 -27
+28 -28
+29 -29
+30 -30
+31 -31
+32 -32
EOF
